* ENCODING=ISO-8859-1
NAME          CPLEX
ROWS
 N  obj1    
 G  c1      
 G  c2      
 G  c3      
 G  c4      
 G  c5      
 G  c6      
 G  c7      
 G  c8      
 G  c9      
 G  c10     
 G  c11     
 G  c12     
 G  c13     
 G  c14     
 G  c15     
 G  c16     
 G  c17     
 G  c18     
 G  c19     
 G  c20     
 G  c21     
 G  c22     
 G  c23     
 G  c24     
 G  c25     
 G  c26     
 G  c27     
 G  c28     
 G  c29     
 G  c30     
 G  c31     
 G  c32     
 G  c33     
 G  c34     
 G  c35     
COLUMNS
    MARK0000  'MARKER'                 'INTORG'
    x1        obj1                            1
    x1        c9                            696
    x1        c23                           680
    x1        c29                           726
    x1        c33                           133
    x2        obj1                            1
    x2        c1                            262
    x2        c9                            826
    x2        c13                           491
    x2        c14                           969
    x2        c25                           137
    x2        c29                           500
    x2        c35                           127
    x3        obj1                            1
    x3        c11                           914
    x3        c18                           818
    x4        obj1                            1
    x4        c2                            495
    x4        c6                            581
    x4        c17                           568
    x4        c21                           715
    x4        c34                           858
    x5        obj1                            1
    x5        c12                           667
    x5        c18                           775
    x6        obj1                            1
    x6        c24                           978
    x7        obj1                            1
    x7        c9                            394
    x7        c14                           284
    x7        c16                           494
    x7        c33                           361
    x8        obj1                            1
    x8        c11                           103
    x8        c13                           747
    x8        c16                           149
    x8        c23                           981
    x8        c29                           924
    x9        obj1                            1
    x9        c5                            299
    x9        c7                            938
    x9        c14                           737
    x9        c30                           179
    x10       obj1                            1
    x10       c3                            482
    x10       c25                           109
    x11       obj1                            1
    x11       c5                            763
    x11       c13                           911
    x11       c34                           253
    x12       obj1                            1
    x12       c2                            142
    x12       c27                           391
    x12       c30                           760
    x13       obj1                            1
    x13       c27                           530
    x14       obj1                            1
    x14       c9                            758
    x14       c25                           201
    x14       c29                           425
    x15       obj1                            1
    x15       c1                            715
    x15       c7                            331
    x15       c23                           114
    x15       c30                           985
    x16       obj1                            1
    x16       c3                            114
    x16       c29                           152
    x16       c31                           194
    x16       c35                           257
    x17       obj1                            1
    x17       c15                           250
    x18       obj1                            1
    x18       c8                            473
    x18       c17                           615
    x18       c24                           501
    x18       c29                           590
    x18       c30                           636
    x18       c35                           706
    x19       obj1                            1
    x19       c12                           606
    x19       c13                           293
    x19       c14                           853
    x19       c26                           131
    x19       c35                           310
    x20       obj1                            1
    x20       c8                            972
    x20       c16                           557
    x20       c33                           298
    x21       obj1                            1
    x21       c19                           364
    x22       obj1                            1
    x22       c4                            964
    x22       c14                           590
    x22       c33                           987
    x23       obj1                            1
    x23       c3                            895
    x23       c4                            749
    x23       c9                            847
    x23       c19                           415
    x23       c21                           912
    x24       obj1                            1
    x24       c3                            138
    x24       c7                            461
    x24       c12                           407
    x24       c23                           258
    x24       c27                           289
    x25       obj1                            1
    x25       c6                            727
    x25       c10                           857
    x25       c16                           178
    x26       obj1                            1
    x26       c6                            984
    x26       c12                           598
    x26       c19                           743
    x26       c20                           237
    x26       c34                           460
    x27       obj1                            1
    x27       c9                            718
    x27       c14                           183
    x27       c18                           389
    x27       c21                           551
    x27       c25                           319
    x27       c30                           259
    x28       obj1                            1
    x28       c17                           491
    x28       c19                           538
    x28       c20                           539
    x28       c21                           771
    x28       c22                           132
    x28       c33                           445
    x29       obj1                            1
    x29       c10                           243
    x29       c12                           607
    x29       c22                           381
    x29       c25                           737
    x29       c28                           958
    x30       obj1                            1
    x30       c12                           637
    x30       c17                           170
    x31       obj1                            1
    x31       c10                           778
    x31       c20                           340
    x32       obj1                            1
    x32       c7                            578
    x32       c22                           123
    x32       c27                           387
    x32       c34                           651
    x33       obj1                            1
    x33       c1                            563
    x33       c4                            958
    x33       c7                            539
    x33       c18                           307
    x33       c28                           930
    x33       c30                           896
    x33       c31                           380
    x33       c34                           855
    x34       obj1                            1
    x34       c1                            353
    x34       c8                            543
    x34       c12                           442
    x34       c22                           816
    x34       c23                           246
    x35       obj1                            1
    x35       c4                            305
    x35       c18                           662
    x35       c25                           361
    x35       c27                           201
    x35       c29                           797
    x36       obj1                            1
    x36       c12                           853
    x36       c17                           927
    x36       c19                           341
    x37       obj1                            1
    x37       c34                           704
    x38       obj1                            1
    x38       c4                            351
    x38       c21                           379
    x38       c22                           850
    x38       c32                           816
    x39       obj1                            1
    x39       c3                            565
    x39       c18                           261
    x39       c22                           952
    x39       c27                           833
    x39       c29                           432
    x40       obj1                            1
    x40       c3                            940
    x40       c7                            452
    x41       obj1                            1
    x41       c5                            894
    x41       c6                            417
    x41       c31                           418
    x42       obj1                            1
    x42       c35                           995
    x43       obj1                            1
    x43       c19                           434
    x43       c35                           982
    x44       obj1                            1
    x44       c5                            389
    x44       c7                            675
    x44       c9                            158
    x44       c11                           317
    x44       c24                           254
    x44       c26                           459
    x44       c32                           885
    x44       c35                           125
    x45       obj1                            1
    x45       c12                           161
    x45       c14                           912
    x45       c34                           141
    x46       obj1                            1
    x46       c5                            386
    x46       c9                            859
    x47       obj1                            1
    x47       c5                            361
    x47       c19                           492
    x47       c24                           599
    x47       c25                           521
    x47       c27                           638
    x47       c28                           670
    x47       c30                           284
    x48       obj1                            1
    x48       c3                            498
    x48       c5                            937
    x48       c23                           755
    x48       c29                           650
    x49       obj1                            1
    x49       c32                           566
    x50       obj1                            1
    x50       c3                            482
    x50       c4                            666
    x50       c11                           437
    x50       c21                           789
    x51       obj1                            1
    x51       c4                            613
    x51       c9                            769
    x51       c13                           664
    x51       c18                           555
    x52       obj1                            1
    x52       c21                           244
    x52       c22                           205
    x53       obj1                            1
    x53       c1                            967
    x53       c3                            218
    x53       c11                           609
    x53       c15                           789
    x53       c17                           855
    x53       c24                           353
    x53       c35                           537
    x54       obj1                            1
    x54       c4                            950
    x54       c15                           749
    x54       c27                           702
    x54       c35                           256
    x55       obj1                            1
    x55       c5                            300
    x55       c6                            103
    x55       c15                           466
    x56       obj1                            1
    x56       c3                            410
    x56       c21                           966
    x56       c25                           150
    x57       obj1                            1
    x57       c4                            672
    x57       c7                            296
    x57       c16                           139
    x57       c25                           425
    x57       c35                           607
    x58       obj1                            1
    x58       c6                            509
    x58       c13                           230
    x58       c19                           779
    x58       c32                           696
    x59       obj1                            1
    x59       c8                            289
    x59       c14                           672
    x59       c28                           857
    x60       obj1                            1
    x60       c11                           917
    x61       obj1                            1
    x61       c7                            683
    x61       c19                           775
    x61       c26                           215
    x62       obj1                            1
    x62       c16                           270
    x62       c20                           842
    x62       c23                           830
    x62       c31                           745
    x62       c32                           202
    x63       obj1                            1
    x63       c17                           871
    x63       c27                           113
    x64       obj1                            1
    x64       c2                            444
    x64       c5                            955
    x64       c15                           488
    x65       obj1                            1
    x66       obj1                            1
    x66       c8                            360
    x66       c14                           167
    x66       c19                           104
    x66       c20                           634
    x66       c26                           902
    x66       c29                           746
    x66       c34                           259
    x67       obj1                            1
    x67       c8                            537
    x67       c10                           730
    x67       c22                           394
    x67       c30                           878
    x68       obj1                            1
    x68       c18                           916
    x68       c21                           692
    x68       c25                           310
    x68       c26                           754
    x68       c31                           780
    x68       c32                           248
    x69       obj1                            1
    x69       c2                            266
    x69       c7                            800
    x69       c9                            856
    x69       c12                           606
    x69       c13                           638
    x70       obj1                            1
    x70       c4                            736
    x70       c6                            565
    x70       c13                           347
    MARK0001  'MARKER'                 'INTEND'
RHS
    rhs       c1                           1430
    rhs       c2                            674
    rhs       c3                           2371
    rhs       c4                           3482
    rhs       c5                           2642
    rhs       c6                           1943
    rhs       c7                           2877
    rhs       c8                           1587
    rhs       c9                           3441
    rhs       c10                          1304
    rhs       c11                          1649
    rhs       c12                          2792
    rhs       c13                          2161
    rhs       c14                          2684
    rhs       c15                          1371
    rhs       c16                           894
    rhs       c17                          2249
    rhs       c18                          2342
    rhs       c19                          2493
    rhs       c20                          1296
    rhs       c21                          3010
    rhs       c22                          1927
    rhs       c23                          1932
    rhs       c24                          1343
    rhs       c25                          1635
    rhs       c26                          1231
    rhs       c27                          2042
    rhs       c28                          1708
    rhs       c29                          2971
    rhs       c30                          2439
    rhs       c31                          1259
    rhs       c32                          1707
    rhs       c33                          1112
    rhs       c34                          2091
    rhs       c35                          2451
BOUNDS
 LI bnd       x1        0
 LI bnd       x2        0
 LI bnd       x3        0
 LI bnd       x4        0
 LI bnd       x5        0
 LI bnd       x6        0
 LI bnd       x7        0
 LI bnd       x8        0
 LI bnd       x9        0
 LI bnd       x10       0
 LI bnd       x11       0
 LI bnd       x12       0
 LI bnd       x13       0
 LI bnd       x14       0
 LI bnd       x15       0
 LI bnd       x16       0
 LI bnd       x17       0
 LI bnd       x18       0
 LI bnd       x19       0
 LI bnd       x20       0
 LI bnd       x21       0
 LI bnd       x22       0
 LI bnd       x23       0
 LI bnd       x24       0
 LI bnd       x25       0
 LI bnd       x26       0
 LI bnd       x27       0
 LI bnd       x28       0
 LI bnd       x29       0
 LI bnd       x30       0
 LI bnd       x31       0
 LI bnd       x32       0
 LI bnd       x33       0
 LI bnd       x34       0
 LI bnd       x35       0
 LI bnd       x36       0
 LI bnd       x37       0
 LI bnd       x38       0
 LI bnd       x39       0
 LI bnd       x40       0
 LI bnd       x41       0
 LI bnd       x42       0
 LI bnd       x43       0
 LI bnd       x44       0
 LI bnd       x45       0
 LI bnd       x46       0
 LI bnd       x47       0
 LI bnd       x48       0
 LI bnd       x49       0
 LI bnd       x50       0
 LI bnd       x51       0
 LI bnd       x52       0
 LI bnd       x53       0
 LI bnd       x54       0
 LI bnd       x55       0
 LI bnd       x56       0
 LI bnd       x57       0
 LI bnd       x58       0
 LI bnd       x59       0
 LI bnd       x60       0
 LI bnd       x61       0
 LI bnd       x62       0
 LI bnd       x63       0
 LI bnd       x64       0
 LI bnd       x65       0
 LI bnd       x66       0
 LI bnd       x67       0
 LI bnd       x68       0
 LI bnd       x69       0
 LI bnd       x70       0
ENDATA
